set N := n1 n2 n3;
set G := G1 G2;
set L := (n1,n2) (n1,n3) (n2,n3);
set T := h1;

param ref := n1;
param bus := G1 n1 G2 n3;
param Pmax := G1 200 G2 200;
param cvar := G1 20 G2 60;

param demand:
        h1 :=
n1      0
n2      150
n3      80;

param B :=
[n1,n2] 10
[n1,n3] 5
[n2,n3] 8;

param Fmax :=
[n1,n2] 100
[n1,n3] 80
[n2,n3] 60;
